% File represents an instance of a Composite Structure problem to be solved by a CP framework
% Created on 2025-03-26 10:42:17.439
T = 58;
n = 36;
m = 60;
edges = [(2, 1),
(8, 7),
(14, 13),
(20, 19),
(26, 25),
(32, 31),
(3, 2),
(8, 9),
(14, 15),
(20, 21),
(26, 27),
(32, 33),
(4, 3),
(10, 9),
(16, 15),
(22, 21),
(27, 28),
(33, 34),
(5, 4),
(11, 10),
(17, 16),
(23, 22),
(29, 28),
(35, 34),
(6, 5),
(12, 11),
(17, 18),
(23, 24),
(30, 29),
(36, 35),
(7, 1),
(13, 7),
(19, 13),
(25, 19),
(25, 31),
(8, 2),
(14, 8),
(20, 14),
(26, 20),
(32, 26),
(3, 9),
(15, 9),
(21, 15),
(27, 21),
(33, 27),
(4, 10),
(16, 10),
(22, 16),
(22, 28),
(34, 28),
(5, 11),
(17, 11),
(23, 17),
(23, 29),
(35, 29),
(6, 12),
(12, 18),
(24, 18),
(30, 24),
(36, 30)];
counts = [|2, 12, 2, 14,
|2, 18, 2, 14,
|2, 20, 2, 18,
|4, 20, 4, 18,
|4, 26, 4, 18,
|4, 28, 4, 22,
|2, 16, 2, 16,
|2, 18, 2, 18,
|2, 16, 2, 16,
|4, 16, 4, 18,
|4, 22, 4, 18,
|4, 26, 4, 18,
|2, 18, 2, 16,
|4, 18, 4, 18,
|2, 18, 2, 16,
|4, 18, 4, 18,
|4, 24, 4, 18,
|4, 24, 4, 16,
|4, 20, 4, 16,
|4, 20, 4, 18,
|4, 20, 4, 16,
|4, 24, 4, 18,
|6, 24, 6, 18,
|4, 24, 4, 18,
|4, 20, 4, 22,
|4, 22, 4, 22,
|4, 20, 4, 20,
|4, 20, 4, 16,
|4, 24, 4, 16,
|4, 26, 4, 18,
|4, 20, 4, 20,
|4, 22, 4, 24,
|4, 22, 4, 20,
|4, 22, 4, 18,
|4, 26, 4, 20,
|4, 26, 4, 22|];
